NAME 
ROWS
 N  OBJ
 L  R0      
 E  R1      
 E  R2      
 E  R3      
 E  R4      
 E  R5      
 E  R6      
 E  R7      
 E  R8      
 E  R9      
 E  R10     
 E  R11     
 E  R12     
 E  R13     
 E  R14     
 E  R15     
COLUMNS
    MARKER    'MARKER'                 'INTORG'
    I0(7)     OBJ       -65
    I0(7)     R0        -9
    I0(7)     R1        19
    I0(7)     R2        3
    I0(7)     R3        19
    I0(7)     R4        19
    I0(7)     R5        11
    I0(7)     R15       1
    I1(7)     OBJ       -73
    I1(7)     R0        122
    I1(7)     R1        -1
    I1(7)     R2        3
    I1(7)     R4        19
    I1(7)     R5        2
    I1(7)     R6        17
    I1(7)     R15       1
    I2(8)     OBJ       171
    I2(8)     R0        33
    I2(8)     R1        13
    I2(8)     R2        19
    I2(8)     R3        3
    I2(8)     R4        3
    I2(8)     R5        9
    I2(8)     R6        3
    I2(8)     R15       1
    I3(6)     OBJ       -44
    I3(6)     R0        -190
    I3(6)     R1        1
    I3(6)     R2        14
    I3(6)     R3        9
    I3(6)     R6        12
    I3(6)     R15       1
    I4(6)     OBJ       -153
    I4(6)     R0        91
    I4(6)     R1        8
    I4(6)     R2        -1
    I4(6)     R4        18
    I4(6)     R5        2
    I4(6)     R15       1
    I5(8)     OBJ       69
    I5(8)     R0        93
    I5(8)     R1        5
    I5(8)     R2        8
    I5(8)     R3        3
    I5(8)     R4        18
    I5(8)     R5        17
    I5(8)     R6        15
    I5(8)     R15       1
    MARKER    'MARKER'                 'INTEND'
    C6(11)    OBJ       -9
    C6(11)    R0        6
    C6(11)    R1        2
    C6(11)    R2        13
    C6(11)    R3        9
    C6(11)    R4        9
    C6(11)    R6        8
    C6(11)    R8        2
    C6(11)    R9        11
    C6(11)    R10       4
    C6(11)    R11       9
    C6(11)    R13       10
    C7(12)    OBJ       4
    C7(12)    R0        -9
    C7(12)    R1        10
    C7(12)    R3        7
    C7(12)    R5        4
    C7(12)    R6        -1
    C7(12)    R7        4
    C7(12)    R8        2
    C7(12)    R9        16
    C7(12)    R10       12
    C7(12)    R11       9
    C7(12)    R13       15
    C7(12)    R14       -1
    C8(13)    OBJ       -7
    C8(13)    R0        5
    C8(13)    R1        1
    C8(13)    R2        13
    C8(13)    R3        3
    C8(13)    R4        6
    C8(13)    R5        10
    C8(13)    R7        -1
    C8(13)    R8        19
    C8(13)    R9        9
    C8(13)    R10       15
    C8(13)    R11       2
    C8(13)    R12       -1
    C8(13)    R13       11
    C9(11)    OBJ       -10
    C9(11)    R0        4
    C9(11)    R2        14
    C9(11)    R3        4
    C9(11)    R4        19
    C9(11)    R6        3
    C9(11)    R7        10
    C9(11)    R8        13
    C9(11)    R9        4
    C9(11)    R10       14
    C9(11)    R13       -1
    C9(11)    R14       13
    C10(10)   OBJ       -2
    C10(10)   R0        -8
    C10(10)   R1        12
    C10(10)   R3        1
    C10(10)   R4        11
    C10(10)   R5        8
    C10(10)   R6        8
    C10(10)   R7        18
    C10(10)   R8        16
    C10(10)   R9        6
    C10(10)   R12       12
    C11(14)   OBJ       -6
    C11(14)   R0        5
    C11(14)   R1        19
    C11(14)   R2        12
    C11(14)   R3        15
    C11(14)   R4        7
    C11(14)   R5        9
    C11(14)   R6        9
    C11(14)   R7        10
    C11(14)   R8        18
    C11(14)   R9        16
    C11(14)   R11       9
    C11(14)   R12       17
    C11(14)   R13       19
    C11(14)   R14       5
    C12(12)   OBJ       -7
    C12(12)   R0        -8
    C12(12)   R2        8
    C12(12)   R3        -1
    C12(12)   R4        8
    C12(12)   R5        6
    C12(12)   R7        18
    C12(12)   R8        2
    C12(12)   R9        4
    C12(12)   R10       1
    C12(12)   R11       4
    C12(12)   R12       11
    C12(12)   R13       14
    C13(14)   OBJ       -5
    C13(14)   R0        -10
    C13(14)   R1        3
    C13(14)   R2        19
    C13(14)   R3        -1
    C13(14)   R5        17
    C13(14)   R6        9
    C13(14)   R7        14
    C13(14)   R8        16
    C13(14)   R9        9
    C13(14)   R10       12
    C13(14)   R11       4
    C13(14)   R12       10
    C13(14)   R13       11
    C13(14)   R14       17
    C14(11)   OBJ       3
    C14(11)   R0        7
    C14(11)   R1        17
    C14(11)   R3        -1
    C14(11)   R4        16
    C14(11)   R5        3
    C14(11)   R6        13
    C14(11)   R10       11
    C14(11)   R11       15
    C14(11)   R12       10
    C14(11)   R13       17
    C14(11)   R14       10
    C15(1)    R1        1
    C16(1)    R2        1
    C17(1)    R3        1
    C18(1)    R4        1
    C19(1)    R5        1
    C20(1)    R6        1
    C21(1)    R7        1
    C22(1)    R8        1
    C23(1)    R9        1
    C24(1)    R10       1
    C25(1)    R11       1
    C26(1)    R12       1
    C27(1)    R13       1
    C28(1)    R14       1
    C29(1)    R15       1
RHS
    RHS1      R0        1.8426900584795325e+02
    RHS1      R1        91
    RHS1      R2        94
    RHS1      R3        68
    RHS1      R4        73
    RHS1      R5        66
    RHS1      R6        61
    RHS1      R7        76
    RHS1      R8        65
    RHS1      R9        78
    RHS1      R10       90
    RHS1      R11       78
    RHS1      R12       78
    RHS1      R13       71
    RHS1      R14       69
    RHS1      R15       2
BOUNDS
 UP BND1      I0(7)     2
 UP BND1      I1(7)     2
 UP BND1      I2(8)     2
 UP BND1      I3(6)     2
 UP BND1      I4(6)     2
 UP BND1      I5(8)     2
ENDATA
